; === Annotated SMT2 Model ===
(set-logic ALL)
; Mixing_of_Liquids [Mixing_of_Liquids001] -> resource: 2025-04_HC10  (Capabilities: —)
(declare-fun assign_Mixing_of_Liquids001_resource_2025-04_HC10 () Bool)
; Mixing_of_Liquids [Mixing_of_Liquids001] -> resource: 2025-04_HC11  (Capabilities: —)
(declare-fun assign_Mixing_of_Liquids001_resource_2025-04_HC11 () Bool)
; Mixing_of_Liquids [Mixing_of_Liquids001] -> resource: 2025-04_HC12  (Capabilities: —)
(declare-fun assign_Mixing_of_Liquids001_resource_2025-04_HC12 () Bool)
; Mixing_of_Liquids [Mixing_of_Liquids001] -> resource: 2025-04_HC13  (Capabilities: —)
(declare-fun assign_Mixing_of_Liquids001_resource_2025-04_HC13 () Bool)
; Mixing_of_Liquids [Mixing_of_Liquids001] -> resource: 2025-04_HC14  (Capabilities: —)
(declare-fun assign_Mixing_of_Liquids001_resource_2025-04_HC14 () Bool)
; Mixing_of_Liquids [Mixing_of_Liquids001] -> resource: 2025-04_HC15  (Capabilities: —)
(declare-fun assign_Mixing_of_Liquids001_resource_2025-04_HC15 () Bool)
; Mixing_of_Liquids [Mixing_of_Liquids001] -> resource: 2025-04_HC16  (Capabilities: —)
(declare-fun assign_Mixing_of_Liquids001_resource_2025-04_HC16 () Bool)
; Mixing_of_Liquids [Mixing_of_Liquids001] -> resource: 2025-04_HC17  (Capabilities: —)
(declare-fun assign_Mixing_of_Liquids001_resource_2025-04_HC17 () Bool)
; Mixing_of_Liquids [Mixing_of_Liquids001] -> resource: 2025-04_HC18  (Capabilities: —)
(declare-fun assign_Mixing_of_Liquids001_resource_2025-04_HC18 () Bool)
; Mixing_of_Liquids [Mixing_of_Liquids001] -> resource: 2025-04_HC19  (Capabilities: —)
(declare-fun assign_Mixing_of_Liquids001_resource_2025-04_HC19 () Bool)
; Mixing_of_Liquids [Mixing_of_Liquids001] -> resource: 2025-04_HC20  (Capabilities: StirringDuration, StirringPulseContinuous, StirringPulseDuration)
(declare-fun assign_Mixing_of_Liquids001_resource_2025-04_HC20 () Bool)
; Mixing_of_Liquids [Mixing_of_Liquids001] -> resource: 2025-04_HC21  (Capabilities: —)
(declare-fun assign_Mixing_of_Liquids001_resource_2025-04_HC21 () Bool)
; Mixing_of_Liquids [Mixing_of_Liquids001] -> resource: 2025-04_HC22  (Capabilities: —)
(declare-fun assign_Mixing_of_Liquids001_resource_2025-04_HC22 () Bool)
; Mixing_of_Liquids [Mixing_of_Liquids001] -> resource: 2025-04_HC23  (Capabilities: —)
(declare-fun assign_Mixing_of_Liquids001_resource_2025-04_HC23 () Bool)
; Mixing_of_Liquids [Mixing_of_Liquids001] -> resource: 2025-04_HC24  (Capabilities: —)
(declare-fun assign_Mixing_of_Liquids001_resource_2025-04_HC24 () Bool)
; Mixing_of_Liquids [Mixing_of_Liquids001] -> resource: 2025-04_HC25  (Capabilities: —)
(declare-fun assign_Mixing_of_Liquids001_resource_2025-04_HC25 () Bool)
; Mixing_of_Liquids [Mixing_of_Liquids001] -> resource: 2025-04_HC26  (Capabilities: —)
(declare-fun assign_Mixing_of_Liquids001_resource_2025-04_HC26 () Bool)
; Mixing_of_Liquids [Mixing_of_Liquids001] -> resource: 2025-04_HC27  (Capabilities: —)
(declare-fun assign_Mixing_of_Liquids001_resource_2025-04_HC27 () Bool)
; Mixing_of_Liquids [Mixing_of_Liquids001] -> resource: 2025-04_HC28  (Capabilities: —)
(declare-fun assign_Mixing_of_Liquids001_resource_2025-04_HC28 () Bool)
; Mixing_of_Liquids [Mixing_of_Liquids001] -> resource: 2025-04_HC29  (Capabilities: StirringPulseContinuous)
(declare-fun assign_Mixing_of_Liquids001_resource_2025-04_HC29 () Bool)
; Mixing_of_Liquids [Mixing_of_Liquids001] -> resource: 2025-04_HC30  (Capabilities: StirringDuration)
(declare-fun assign_Mixing_of_Liquids001_resource_2025-04_HC30 () Bool)
; Mixing_of_Liquids [Mixing_of_Liquids001] -> resource: 2025-04_HC31  (Capabilities: —)
(declare-fun assign_Mixing_of_Liquids001_resource_2025-04_HC31 () Bool)
; Mixing_of_Liquids [Mixing_of_Liquids001] -> resource: 2025-04_HC32  (Capabilities: —)
(declare-fun assign_Mixing_of_Liquids001_resource_2025-04_HC32 () Bool)
; Mixing_of_Liquids [Mixing_of_Liquids001] -> resource: 2025-04_HC33  (Capabilities: —)
(declare-fun assign_Mixing_of_Liquids001_resource_2025-04_HC33 () Bool)
; Mixing_of_Liquids [Mixing_of_Liquids001] -> resource: 2025-04_HC34  (Capabilities: —)
(declare-fun assign_Mixing_of_Liquids001_resource_2025-04_HC34 () Bool)
; Mixing_of_Liquids [Mixing_of_Liquids001] -> resource: 2025-04_HC35  (Capabilities: StirringDuration)
(declare-fun assign_Mixing_of_Liquids001_resource_2025-04_HC35 () Bool)
; Mixing_of_Liquids [Mixing_of_Liquids001] -> resource: 2025-04_HC36  (Capabilities: —)
(declare-fun assign_Mixing_of_Liquids001_resource_2025-04_HC36 () Bool)
; Mixing_of_Liquids [Mixing_of_Liquids001] -> resource: 2025-04_HC37  (Capabilities: —)
(declare-fun assign_Mixing_of_Liquids001_resource_2025-04_HC37 () Bool)
; Mixing_of_Liquids [Mixing_of_Liquids001] -> resource: 2025-04_HC38  (Capabilities: —)
(declare-fun assign_Mixing_of_Liquids001_resource_2025-04_HC38 () Bool)
; Mixing_of_Liquids [Mixing_of_Liquids001] -> resource: 2025-04_HC39  (Capabilities: —)
(declare-fun assign_Mixing_of_Liquids001_resource_2025-04_HC39 () Bool)
; Dosing [Dosing001] -> resource: 2025-04_HC10  (Capabilities: Dosing)
(declare-fun assign_Dosing001_resource_2025-04_HC10 () Bool)
; Dosing [Dosing001] -> resource: 2025-04_HC11  (Capabilities: Dosing)
(declare-fun assign_Dosing001_resource_2025-04_HC11 () Bool)
; Dosing [Dosing001] -> resource: 2025-04_HC12  (Capabilities: Dosing)
(declare-fun assign_Dosing001_resource_2025-04_HC12 () Bool)
; Dosing [Dosing001] -> resource: 2025-04_HC13  (Capabilities: Dosing)
(declare-fun assign_Dosing001_resource_2025-04_HC13 () Bool)
; Dosing [Dosing001] -> resource: 2025-04_HC14  (Capabilities: Dosing)
(declare-fun assign_Dosing001_resource_2025-04_HC14 () Bool)
; Dosing [Dosing001] -> resource: 2025-04_HC15  (Capabilities: Dosing)
(declare-fun assign_Dosing001_resource_2025-04_HC15 () Bool)
; Dosing [Dosing001] -> resource: 2025-04_HC16  (Capabilities: Dosing)
(declare-fun assign_Dosing001_resource_2025-04_HC16 () Bool)
; Dosing [Dosing001] -> resource: 2025-04_HC17  (Capabilities: Dosing)
(declare-fun assign_Dosing001_resource_2025-04_HC17 () Bool)
; Dosing [Dosing001] -> resource: 2025-04_HC18  (Capabilities: Dosing)
(declare-fun assign_Dosing001_resource_2025-04_HC18 () Bool)
; Dosing [Dosing001] -> resource: 2025-04_HC19  (Capabilities: Dosing)
(declare-fun assign_Dosing001_resource_2025-04_HC19 () Bool)
; Dosing [Dosing001] -> resource: 2025-04_HC20  (Capabilities: Dosing)
(declare-fun assign_Dosing001_resource_2025-04_HC20 () Bool)
; Dosing [Dosing001] -> resource: 2025-04_HC21  (Capabilities: Dosing)
(declare-fun assign_Dosing001_resource_2025-04_HC21 () Bool)
; Dosing [Dosing001] -> resource: 2025-04_HC22  (Capabilities: Dosing)
(declare-fun assign_Dosing001_resource_2025-04_HC22 () Bool)
; Dosing [Dosing001] -> resource: 2025-04_HC23  (Capabilities: Dosing)
(declare-fun assign_Dosing001_resource_2025-04_HC23 () Bool)
; Dosing [Dosing001] -> resource: 2025-04_HC24  (Capabilities: Dosing)
(declare-fun assign_Dosing001_resource_2025-04_HC24 () Bool)
; Dosing [Dosing001] -> resource: 2025-04_HC25  (Capabilities: Dosing)
(declare-fun assign_Dosing001_resource_2025-04_HC25 () Bool)
; Dosing [Dosing001] -> resource: 2025-04_HC26  (Capabilities: Dosing)
(declare-fun assign_Dosing001_resource_2025-04_HC26 () Bool)
; Dosing [Dosing001] -> resource: 2025-04_HC27  (Capabilities: Dosing)
(declare-fun assign_Dosing001_resource_2025-04_HC27 () Bool)
; Dosing [Dosing001] -> resource: 2025-04_HC28  (Capabilities: Dosing)
(declare-fun assign_Dosing001_resource_2025-04_HC28 () Bool)
; Dosing [Dosing001] -> resource: 2025-04_HC29  (Capabilities: Dosing)
(declare-fun assign_Dosing001_resource_2025-04_HC29 () Bool)
; Dosing [Dosing001] -> resource: 2025-04_HC30  (Capabilities: —)
(declare-fun assign_Dosing001_resource_2025-04_HC30 () Bool)
; Dosing [Dosing001] -> resource: 2025-04_HC31  (Capabilities: —)
(declare-fun assign_Dosing001_resource_2025-04_HC31 () Bool)
; Dosing [Dosing001] -> resource: 2025-04_HC32  (Capabilities: —)
(declare-fun assign_Dosing001_resource_2025-04_HC32 () Bool)
; Dosing [Dosing001] -> resource: 2025-04_HC33  (Capabilities: —)
(declare-fun assign_Dosing001_resource_2025-04_HC33 () Bool)
; Dosing [Dosing001] -> resource: 2025-04_HC34  (Capabilities: —)
(declare-fun assign_Dosing001_resource_2025-04_HC34 () Bool)
; Dosing [Dosing001] -> resource: 2025-04_HC35  (Capabilities: —)
(declare-fun assign_Dosing001_resource_2025-04_HC35 () Bool)
; Dosing [Dosing001] -> resource: 2025-04_HC36  (Capabilities: —)
(declare-fun assign_Dosing001_resource_2025-04_HC36 () Bool)
; Dosing [Dosing001] -> resource: 2025-04_HC37  (Capabilities: —)
(declare-fun assign_Dosing001_resource_2025-04_HC37 () Bool)
; Dosing [Dosing001] -> resource: 2025-04_HC38  (Capabilities: —)
(declare-fun assign_Dosing001_resource_2025-04_HC38 () Bool)
; Dosing [Dosing001] -> resource: 2025-04_HC39  (Capabilities: —)
(declare-fun assign_Dosing001_resource_2025-04_HC39 () Bool)
; Heating_of_liquids [Heating_of_liquids001] -> resource: 2025-04_HC10  (Capabilities: HeatingControlled, HeatingPWM, HeatingRamp)
(declare-fun assign_Heating_of_liquids001_resource_2025-04_HC10 () Bool)
; Heating_of_liquids [Heating_of_liquids001] -> resource: 2025-04_HC11  (Capabilities: —)
(declare-fun assign_Heating_of_liquids001_resource_2025-04_HC11 () Bool)
; Heating_of_liquids [Heating_of_liquids001] -> resource: 2025-04_HC12  (Capabilities: HeatingPWM)
(declare-fun assign_Heating_of_liquids001_resource_2025-04_HC12 () Bool)
; Heating_of_liquids [Heating_of_liquids001] -> resource: 2025-04_HC13  (Capabilities: HeatingControlled)
(declare-fun assign_Heating_of_liquids001_resource_2025-04_HC13 () Bool)
; Heating_of_liquids [Heating_of_liquids001] -> resource: 2025-04_HC14  (Capabilities: —)
(declare-fun assign_Heating_of_liquids001_resource_2025-04_HC14 () Bool)
; Heating_of_liquids [Heating_of_liquids001] -> resource: 2025-04_HC15  (Capabilities: HeatingControlled, HeatingPWM, HeatingRamp)
(declare-fun assign_Heating_of_liquids001_resource_2025-04_HC15 () Bool)
; Heating_of_liquids [Heating_of_liquids001] -> resource: 2025-04_HC16  (Capabilities: —)
(declare-fun assign_Heating_of_liquids001_resource_2025-04_HC16 () Bool)
; Heating_of_liquids [Heating_of_liquids001] -> resource: 2025-04_HC17  (Capabilities: —)
(declare-fun assign_Heating_of_liquids001_resource_2025-04_HC17 () Bool)
; Heating_of_liquids [Heating_of_liquids001] -> resource: 2025-04_HC18  (Capabilities: HeatingControlled, HeatingRamp)
(declare-fun assign_Heating_of_liquids001_resource_2025-04_HC18 () Bool)
; Heating_of_liquids [Heating_of_liquids001] -> resource: 2025-04_HC19  (Capabilities: HeatingControlled, HeatingPWM)
(declare-fun assign_Heating_of_liquids001_resource_2025-04_HC19 () Bool)
; Heating_of_liquids [Heating_of_liquids001] -> resource: 2025-04_HC20  (Capabilities: —)
(declare-fun assign_Heating_of_liquids001_resource_2025-04_HC20 () Bool)
; Heating_of_liquids [Heating_of_liquids001] -> resource: 2025-04_HC21  (Capabilities: —)
(declare-fun assign_Heating_of_liquids001_resource_2025-04_HC21 () Bool)
; Heating_of_liquids [Heating_of_liquids001] -> resource: 2025-04_HC22  (Capabilities: —)
(declare-fun assign_Heating_of_liquids001_resource_2025-04_HC22 () Bool)
; Heating_of_liquids [Heating_of_liquids001] -> resource: 2025-04_HC23  (Capabilities: —)
(declare-fun assign_Heating_of_liquids001_resource_2025-04_HC23 () Bool)
; Heating_of_liquids [Heating_of_liquids001] -> resource: 2025-04_HC24  (Capabilities: —)
(declare-fun assign_Heating_of_liquids001_resource_2025-04_HC24 () Bool)
; Heating_of_liquids [Heating_of_liquids001] -> resource: 2025-04_HC25  (Capabilities: —)
(declare-fun assign_Heating_of_liquids001_resource_2025-04_HC25 () Bool)
; Heating_of_liquids [Heating_of_liquids001] -> resource: 2025-04_HC26  (Capabilities: —)
(declare-fun assign_Heating_of_liquids001_resource_2025-04_HC26 () Bool)
; Heating_of_liquids [Heating_of_liquids001] -> resource: 2025-04_HC27  (Capabilities: —)
(declare-fun assign_Heating_of_liquids001_resource_2025-04_HC27 () Bool)
; Heating_of_liquids [Heating_of_liquids001] -> resource: 2025-04_HC28  (Capabilities: —)
(declare-fun assign_Heating_of_liquids001_resource_2025-04_HC28 () Bool)
; Heating_of_liquids [Heating_of_liquids001] -> resource: 2025-04_HC29  (Capabilities: —)
(declare-fun assign_Heating_of_liquids001_resource_2025-04_HC29 () Bool)
; Heating_of_liquids [Heating_of_liquids001] -> resource: 2025-04_HC30  (Capabilities: —)
(declare-fun assign_Heating_of_liquids001_resource_2025-04_HC30 () Bool)
; Heating_of_liquids [Heating_of_liquids001] -> resource: 2025-04_HC31  (Capabilities: —)
(declare-fun assign_Heating_of_liquids001_resource_2025-04_HC31 () Bool)
; Heating_of_liquids [Heating_of_liquids001] -> resource: 2025-04_HC32  (Capabilities: —)
(declare-fun assign_Heating_of_liquids001_resource_2025-04_HC32 () Bool)
; Heating_of_liquids [Heating_of_liquids001] -> resource: 2025-04_HC33  (Capabilities: —)
(declare-fun assign_Heating_of_liquids001_resource_2025-04_HC33 () Bool)
; Heating_of_liquids [Heating_of_liquids001] -> resource: 2025-04_HC34  (Capabilities: —)
(declare-fun assign_Heating_of_liquids001_resource_2025-04_HC34 () Bool)
; Heating_of_liquids [Heating_of_liquids001] -> resource: 2025-04_HC35  (Capabilities: —)
(declare-fun assign_Heating_of_liquids001_resource_2025-04_HC35 () Bool)
; Heating_of_liquids [Heating_of_liquids001] -> resource: 2025-04_HC36  (Capabilities: —)
(declare-fun assign_Heating_of_liquids001_resource_2025-04_HC36 () Bool)
; Heating_of_liquids [Heating_of_liquids001] -> resource: 2025-04_HC37  (Capabilities: —)
(declare-fun assign_Heating_of_liquids001_resource_2025-04_HC37 () Bool)
; Heating_of_liquids [Heating_of_liquids001] -> resource: 2025-04_HC38  (Capabilities: —)
(declare-fun assign_Heating_of_liquids001_resource_2025-04_HC38 () Bool)
; Heating_of_liquids [Heating_of_liquids001] -> resource: 2025-04_HC39  (Capabilities: —)
(declare-fun assign_Heating_of_liquids001_resource_2025-04_HC39 () Bool)

; Excluded assignments due to failed preconditions or property mismatch
(assert (! (not assign_Dosing001_resource_2025-04_HC38) :named precond_fail_Dosing001_resource 2025-04_HC38))
(assert (! (not assign_Heating_of_liquids001_resource_2025-04_HC37) :named precond_fail_Heating_of_liquids001_resource 2025-04_HC37))
(assert (! (not assign_Mixing_of_Liquids001_resource_2025-04_HC12) :named precond_fail_Mixing_of_Liquids001_resource 2025-04_HC12))
(assert (! (not assign_Mixing_of_Liquids001_resource_2025-04_HC15) :named precond_fail_Mixing_of_Liquids001_resource 2025-04_HC15))
(assert (! (not assign_Mixing_of_Liquids001_resource_2025-04_HC18) :named precond_fail_Mixing_of_Liquids001_resource 2025-04_HC18))
(assert (! (not assign_Mixing_of_Liquids001_resource_2025-04_HC24) :named precond_fail_Mixing_of_Liquids001_resource 2025-04_HC24))
(assert (! (not assign_Heating_of_liquids001_resource_2025-04_HC21) :named precond_fail_Heating_of_liquids001_resource 2025-04_HC21))
(assert (! (not assign_Mixing_of_Liquids001_resource_2025-04_HC21) :named precond_fail_Mixing_of_Liquids001_resource 2025-04_HC21))
(assert (! (not assign_Mixing_of_Liquids001_resource_2025-04_HC27) :named precond_fail_Mixing_of_Liquids001_resource 2025-04_HC27))
(assert (! (not assign_Mixing_of_Liquids001_resource_2025-04_HC33) :named precond_fail_Mixing_of_Liquids001_resource 2025-04_HC33))
(assert (! (not assign_Heating_of_liquids001_resource_2025-04_HC24) :named precond_fail_Heating_of_liquids001_resource 2025-04_HC24))
(assert (! (not assign_Mixing_of_Liquids001_resource_2025-04_HC36) :named precond_fail_Mixing_of_Liquids001_resource 2025-04_HC36))
(assert (! (not assign_Heating_of_liquids001_resource_2025-04_HC27) :named precond_fail_Heating_of_liquids001_resource 2025-04_HC27))
(assert (! (not assign_Dosing001_resource_2025-04_HC31) :named precond_fail_Dosing001_resource 2025-04_HC31))
(assert (! (not assign_Heating_of_liquids001_resource_2025-04_HC33) :named precond_fail_Heating_of_liquids001_resource 2025-04_HC33))
(assert (! (not assign_Mixing_of_Liquids001_resource_2025-04_HC39) :named precond_fail_Mixing_of_Liquids001_resource 2025-04_HC39))
(assert (! (not assign_Heating_of_liquids001_resource_2025-04_HC30) :named precond_fail_Heating_of_liquids001_resource 2025-04_HC30))
(assert (! (not assign_Dosing001_resource_2025-04_HC34) :named precond_fail_Dosing001_resource 2025-04_HC34))
(assert (! (not assign_Heating_of_liquids001_resource_2025-04_HC36) :named precond_fail_Heating_of_liquids001_resource 2025-04_HC36))
(assert (! (not assign_Heating_of_liquids001_resource_2025-04_HC39) :named precond_fail_Heating_of_liquids001_resource 2025-04_HC39))
(assert (! (not assign_Dosing001_resource_2025-04_HC37) :named precond_fail_Dosing001_resource 2025-04_HC37))
(assert (! (not assign_Heating_of_liquids001_resource_2025-04_HC31) :named precond_fail_Heating_of_liquids001_resource 2025-04_HC31))
(assert (! (not assign_Mixing_of_Liquids001_resource_2025-04_HC11) :named precond_fail_Mixing_of_Liquids001_resource 2025-04_HC11))
(assert (! (not assign_Mixing_of_Liquids001_resource_2025-04_HC17) :named precond_fail_Mixing_of_Liquids001_resource 2025-04_HC17))
(assert (! (not assign_Heating_of_liquids001_resource_2025-04_HC14) :named precond_fail_Heating_of_liquids001_resource 2025-04_HC14))
(assert (! (not assign_Mixing_of_Liquids001_resource_2025-04_HC14) :named precond_fail_Mixing_of_Liquids001_resource 2025-04_HC14))
(assert (! (not assign_Heating_of_liquids001_resource_2025-04_HC11) :named precond_fail_Heating_of_liquids001_resource 2025-04_HC11))
(assert (! (not assign_Mixing_of_Liquids001_resource_2025-04_HC26) :named precond_fail_Mixing_of_Liquids001_resource 2025-04_HC26))
(assert (! (not assign_Heating_of_liquids001_resource_2025-04_HC17) :named precond_fail_Heating_of_liquids001_resource 2025-04_HC17))
(assert (! (not assign_Heating_of_liquids001_resource_2025-04_HC25) :named precond_fail_Heating_of_liquids001_resource 2025-04_HC25))
(assert (! (not assign_Mixing_of_Liquids001_resource_2025-04_HC23) :named precond_fail_Mixing_of_Liquids001_resource 2025-04_HC23))
(assert (! (not assign_Heating_of_liquids001_resource_2025-04_HC20) :named precond_fail_Heating_of_liquids001_resource 2025-04_HC20))
(assert (! (not assign_Heating_of_liquids001_resource_2025-04_HC26) :named precond_fail_Heating_of_liquids001_resource 2025-04_HC26))
(assert (! (not assign_Dosing001_resource_2025-04_HC30) :named precond_fail_Dosing001_resource 2025-04_HC30))
(assert (! (not assign_Mixing_of_Liquids001_resource_2025-04_HC32) :named precond_fail_Mixing_of_Liquids001_resource 2025-04_HC32))
(assert (! (not assign_Mixing_of_Liquids001_resource_2025-04_HC38) :named precond_fail_Mixing_of_Liquids001_resource 2025-04_HC38))
(assert (! (not assign_Heating_of_liquids001_resource_2025-04_HC23) :named precond_fail_Heating_of_liquids001_resource 2025-04_HC23))
(assert (! (not assign_Dosing001_resource_2025-04_HC33) :named precond_fail_Dosing001_resource 2025-04_HC33))
(assert (! (not assign_Heating_of_liquids001_resource_2025-04_HC29) :named precond_fail_Heating_of_liquids001_resource 2025-04_HC29))
(assert (! (not assign_Heating_of_liquids001_resource_2025-04_HC32) :named precond_fail_Heating_of_liquids001_resource 2025-04_HC32))
(assert (! (not assign_Heating_of_liquids001_resource_2025-04_HC38) :named precond_fail_Heating_of_liquids001_resource 2025-04_HC38))
(assert (! (not assign_Dosing001_resource_2025-04_HC36) :named precond_fail_Dosing001_resource 2025-04_HC36))
(assert (! (not assign_Heating_of_liquids001_resource_2025-04_HC35) :named precond_fail_Heating_of_liquids001_resource 2025-04_HC35))
(assert (! (not assign_Dosing001_resource_2025-04_HC39) :named precond_fail_Dosing001_resource 2025-04_HC39))
(assert (! (not assign_Mixing_of_Liquids001_resource_2025-04_HC10) :named precond_fail_Mixing_of_Liquids001_resource 2025-04_HC10))
(assert (! (not assign_Mixing_of_Liquids001_resource_2025-04_HC13) :named precond_fail_Mixing_of_Liquids001_resource 2025-04_HC13))
(assert (! (not assign_Mixing_of_Liquids001_resource_2025-04_HC19) :named precond_fail_Mixing_of_Liquids001_resource 2025-04_HC19))
(assert (! (not assign_Mixing_of_Liquids001_resource_2025-04_HC16) :named precond_fail_Mixing_of_Liquids001_resource 2025-04_HC16))
(assert (! (not assign_Mixing_of_Liquids001_resource_2025-04_HC22) :named precond_fail_Mixing_of_Liquids001_resource 2025-04_HC22))
(assert (! (not assign_Mixing_of_Liquids001_resource_2025-04_HC25) :named precond_fail_Mixing_of_Liquids001_resource 2025-04_HC25))
(assert (! (not assign_Mixing_of_Liquids001_resource_2025-04_HC31) :named precond_fail_Mixing_of_Liquids001_resource 2025-04_HC31))
(assert (! (not assign_Heating_of_liquids001_resource_2025-04_HC16) :named precond_fail_Heating_of_liquids001_resource 2025-04_HC16))
(assert (! (not assign_Heating_of_liquids001_resource_2025-04_HC22) :named precond_fail_Heating_of_liquids001_resource 2025-04_HC22))
(assert (! (not assign_Mixing_of_Liquids001_resource_2025-04_HC28) :named precond_fail_Mixing_of_Liquids001_resource 2025-04_HC28))
(assert (! (not assign_Mixing_of_Liquids001_resource_2025-04_HC34) :named precond_fail_Mixing_of_Liquids001_resource 2025-04_HC34))
(assert (! (not assign_Heating_of_liquids001_resource_2025-04_HC28) :named precond_fail_Heating_of_liquids001_resource 2025-04_HC28))
(assert (! (not assign_Dosing001_resource_2025-04_HC35) :named precond_fail_Dosing001_resource 2025-04_HC35))
(assert (! (not assign_Mixing_of_Liquids001_resource_2025-04_HC37) :named precond_fail_Mixing_of_Liquids001_resource 2025-04_HC37))
(assert (! (not assign_Heating_of_liquids001_resource_2025-04_HC34) :named precond_fail_Heating_of_liquids001_resource 2025-04_HC34))
(assert (! (not assign_Dosing001_resource_2025-04_HC32) :named precond_fail_Dosing001_resource 2025-04_HC32))

; Postprocessed negations
(assert (! (not assign_Dosing001_resource_2025-04_HC10) :named postproc_neg_assign_Dosing001_resource_2025-04_HC10))
(assert (! (not assign_Dosing001_resource_2025-04_HC11) :named postproc_neg_assign_Dosing001_resource_2025-04_HC11))
(assert (! (not assign_Dosing001_resource_2025-04_HC12) :named postproc_neg_assign_Dosing001_resource_2025-04_HC12))
(assert (! (not assign_Dosing001_resource_2025-04_HC13) :named postproc_neg_assign_Dosing001_resource_2025-04_HC13))
(assert (! (not assign_Dosing001_resource_2025-04_HC14) :named postproc_neg_assign_Dosing001_resource_2025-04_HC14))
(assert (! (not assign_Dosing001_resource_2025-04_HC15) :named postproc_neg_assign_Dosing001_resource_2025-04_HC15))
(assert (! (not assign_Dosing001_resource_2025-04_HC16) :named postproc_neg_assign_Dosing001_resource_2025-04_HC16))
(assert (! (not assign_Dosing001_resource_2025-04_HC17) :named postproc_neg_assign_Dosing001_resource_2025-04_HC17))
(assert (! (not assign_Dosing001_resource_2025-04_HC18) :named postproc_neg_assign_Dosing001_resource_2025-04_HC18))
(assert (! (not assign_Dosing001_resource_2025-04_HC19) :named postproc_neg_assign_Dosing001_resource_2025-04_HC19))
(assert (! (not assign_Dosing001_resource_2025-04_HC21) :named postproc_neg_assign_Dosing001_resource_2025-04_HC21))
(assert (! (not assign_Dosing001_resource_2025-04_HC22) :named postproc_neg_assign_Dosing001_resource_2025-04_HC22))
(assert (! (not assign_Dosing001_resource_2025-04_HC23) :named postproc_neg_assign_Dosing001_resource_2025-04_HC23))
(assert (! (not assign_Dosing001_resource_2025-04_HC24) :named postproc_neg_assign_Dosing001_resource_2025-04_HC24))
(assert (! (not assign_Dosing001_resource_2025-04_HC25) :named postproc_neg_assign_Dosing001_resource_2025-04_HC25))
(assert (! (not assign_Dosing001_resource_2025-04_HC26) :named postproc_neg_assign_Dosing001_resource_2025-04_HC26))
(assert (! (not assign_Dosing001_resource_2025-04_HC27) :named postproc_neg_assign_Dosing001_resource_2025-04_HC27))
(assert (! (not assign_Dosing001_resource_2025-04_HC28) :named postproc_neg_assign_Dosing001_resource_2025-04_HC28))
(assert (! (not assign_Dosing001_resource_2025-04_HC29) :named postproc_neg_assign_Dosing001_resource_2025-04_HC29))
(assert (! (not assign_Heating_of_liquids001_resource_2025-04_HC10) :named postproc_neg_assign_Heating_of_liquids001_resource_2025-04_HC10))
(assert (! (not assign_Heating_of_liquids001_resource_2025-04_HC12) :named postproc_neg_assign_Heating_of_liquids001_resource_2025-04_HC12))
(assert (! (not assign_Heating_of_liquids001_resource_2025-04_HC15) :named postproc_neg_assign_Heating_of_liquids001_resource_2025-04_HC15))
(assert (! (not assign_Heating_of_liquids001_resource_2025-04_HC18) :named postproc_neg_assign_Heating_of_liquids001_resource_2025-04_HC18))
(assert (! (not assign_Heating_of_liquids001_resource_2025-04_HC19) :named postproc_neg_assign_Heating_of_liquids001_resource_2025-04_HC19))
(assert (! (not assign_Mixing_of_Liquids001_resource_2025-04_HC29) :named postproc_neg_assign_Mixing_of_Liquids001_resource_2025-04_HC29))
(assert (! (not assign_Mixing_of_Liquids001_resource_2025-04_HC30) :named postproc_neg_assign_Mixing_of_Liquids001_resource_2025-04_HC30))
(assert (! (not assign_Mixing_of_Liquids001_resource_2025-04_HC35) :named postproc_neg_assign_Mixing_of_Liquids001_resource_2025-04_HC35))

; Step: Mixing_of_Liquids [Mixing_of_Liquids001]: Must be mapped to exactly one resource
(assert (! (= (+ (ite assign_Mixing_of_Liquids001_resource_2025-04_HC10 1 0) (ite assign_Mixing_of_Liquids001_resource_2025-04_HC11 1 0) (ite assign_Mixing_of_Liquids001_resource_2025-04_HC12 1 0) (ite assign_Mixing_of_Liquids001_resource_2025-04_HC13 1 0) (ite assign_Mixing_of_Liquids001_resource_2025-04_HC14 1 0) (ite assign_Mixing_of_Liquids001_resource_2025-04_HC15 1 0) (ite assign_Mixing_of_Liquids001_resource_2025-04_HC16 1 0) (ite assign_Mixing_of_Liquids001_resource_2025-04_HC17 1 0) (ite assign_Mixing_of_Liquids001_resource_2025-04_HC18 1 0) (ite assign_Mixing_of_Liquids001_resource_2025-04_HC19 1 0) (ite assign_Mixing_of_Liquids001_resource_2025-04_HC20 1 0) (ite assign_Mixing_of_Liquids001_resource_2025-04_HC21 1 0) (ite assign_Mixing_of_Liquids001_resource_2025-04_HC22 1 0) (ite assign_Mixing_of_Liquids001_resource_2025-04_HC23 1 0) (ite assign_Mixing_of_Liquids001_resource_2025-04_HC24 1 0) (ite assign_Mixing_of_Liquids001_resource_2025-04_HC25 1 0) (ite assign_Mixing_of_Liquids001_resource_2025-04_HC26 1 0) (ite assign_Mixing_of_Liquids001_resource_2025-04_HC27 1 0) (ite assign_Mixing_of_Liquids001_resource_2025-04_HC28 1 0) (ite assign_Mixing_of_Liquids001_resource_2025-04_HC29 1 0) (ite assign_Mixing_of_Liquids001_resource_2025-04_HC30 1 0) (ite assign_Mixing_of_Liquids001_resource_2025-04_HC31 1 0) (ite assign_Mixing_of_Liquids001_resource_2025-04_HC32 1 0) (ite assign_Mixing_of_Liquids001_resource_2025-04_HC33 1 0) (ite assign_Mixing_of_Liquids001_resource_2025-04_HC34 1 0) (ite assign_Mixing_of_Liquids001_resource_2025-04_HC35 1 0) (ite assign_Mixing_of_Liquids001_resource_2025-04_HC36 1 0) (ite assign_Mixing_of_Liquids001_resource_2025-04_HC37 1 0) (ite assign_Mixing_of_Liquids001_resource_2025-04_HC38 1 0) (ite assign_Mixing_of_Liquids001_resource_2025-04_HC39 1 0)) 1) :named assign_unique_Mixing_of_Liquids001))
; Step: Dosing [Dosing001]: Must be mapped to exactly one resource
(assert (! (= (+ (ite assign_Dosing001_resource_2025-04_HC10 1 0) (ite assign_Dosing001_resource_2025-04_HC11 1 0) (ite assign_Dosing001_resource_2025-04_HC12 1 0) (ite assign_Dosing001_resource_2025-04_HC13 1 0) (ite assign_Dosing001_resource_2025-04_HC14 1 0) (ite assign_Dosing001_resource_2025-04_HC15 1 0) (ite assign_Dosing001_resource_2025-04_HC16 1 0) (ite assign_Dosing001_resource_2025-04_HC17 1 0) (ite assign_Dosing001_resource_2025-04_HC18 1 0) (ite assign_Dosing001_resource_2025-04_HC19 1 0) (ite assign_Dosing001_resource_2025-04_HC20 1 0) (ite assign_Dosing001_resource_2025-04_HC21 1 0) (ite assign_Dosing001_resource_2025-04_HC22 1 0) (ite assign_Dosing001_resource_2025-04_HC23 1 0) (ite assign_Dosing001_resource_2025-04_HC24 1 0) (ite assign_Dosing001_resource_2025-04_HC25 1 0) (ite assign_Dosing001_resource_2025-04_HC26 1 0) (ite assign_Dosing001_resource_2025-04_HC27 1 0) (ite assign_Dosing001_resource_2025-04_HC28 1 0) (ite assign_Dosing001_resource_2025-04_HC29 1 0) (ite assign_Dosing001_resource_2025-04_HC30 1 0) (ite assign_Dosing001_resource_2025-04_HC31 1 0) (ite assign_Dosing001_resource_2025-04_HC32 1 0) (ite assign_Dosing001_resource_2025-04_HC33 1 0) (ite assign_Dosing001_resource_2025-04_HC34 1 0) (ite assign_Dosing001_resource_2025-04_HC35 1 0) (ite assign_Dosing001_resource_2025-04_HC36 1 0) (ite assign_Dosing001_resource_2025-04_HC37 1 0) (ite assign_Dosing001_resource_2025-04_HC38 1 0) (ite assign_Dosing001_resource_2025-04_HC39 1 0)) 1) :named assign_unique_Dosing001))
; Step: Heating_of_liquids [Heating_of_liquids001]: Must be mapped to exactly one resource
(assert (! (= (+ (ite assign_Heating_of_liquids001_resource_2025-04_HC10 1 0) (ite assign_Heating_of_liquids001_resource_2025-04_HC11 1 0) (ite assign_Heating_of_liquids001_resource_2025-04_HC12 1 0) (ite assign_Heating_of_liquids001_resource_2025-04_HC13 1 0) (ite assign_Heating_of_liquids001_resource_2025-04_HC14 1 0) (ite assign_Heating_of_liquids001_resource_2025-04_HC15 1 0) (ite assign_Heating_of_liquids001_resource_2025-04_HC16 1 0) (ite assign_Heating_of_liquids001_resource_2025-04_HC17 1 0) (ite assign_Heating_of_liquids001_resource_2025-04_HC18 1 0) (ite assign_Heating_of_liquids001_resource_2025-04_HC19 1 0) (ite assign_Heating_of_liquids001_resource_2025-04_HC20 1 0) (ite assign_Heating_of_liquids001_resource_2025-04_HC21 1 0) (ite assign_Heating_of_liquids001_resource_2025-04_HC22 1 0) (ite assign_Heating_of_liquids001_resource_2025-04_HC23 1 0) (ite assign_Heating_of_liquids001_resource_2025-04_HC24 1 0) (ite assign_Heating_of_liquids001_resource_2025-04_HC25 1 0) (ite assign_Heating_of_liquids001_resource_2025-04_HC26 1 0) (ite assign_Heating_of_liquids001_resource_2025-04_HC27 1 0) (ite assign_Heating_of_liquids001_resource_2025-04_HC28 1 0) (ite assign_Heating_of_liquids001_resource_2025-04_HC29 1 0) (ite assign_Heating_of_liquids001_resource_2025-04_HC30 1 0) (ite assign_Heating_of_liquids001_resource_2025-04_HC31 1 0) (ite assign_Heating_of_liquids001_resource_2025-04_HC32 1 0) (ite assign_Heating_of_liquids001_resource_2025-04_HC33 1 0) (ite assign_Heating_of_liquids001_resource_2025-04_HC34 1 0) (ite assign_Heating_of_liquids001_resource_2025-04_HC35 1 0) (ite assign_Heating_of_liquids001_resource_2025-04_HC36 1 0) (ite assign_Heating_of_liquids001_resource_2025-04_HC37 1 0) (ite assign_Heating_of_liquids001_resource_2025-04_HC38 1 0) (ite assign_Heating_of_liquids001_resource_2025-04_HC39 1 0)) 1) :named assign_unique_Heating_of_liquids001))

(check-sat)
